# 1. INITIALIZATION
#allows pair, bond, bending and dihedral interactions
atom_style full

  # periodic (video game) boundaries in all cartesian directions
boundary p p p

  # uses real units (instead of units based on pair potential parameters).  List of units used in manual
units real

###########
# 2. ATOM DEFINITION
########## 

   ##
   # Read in data from starting configuration file
   ##  

#read_data lammps-AT-config 

 #use to restart
read_data equil-lammps-config.dat
#read_restart RESTART

   ##
   # Specify the nature of the bond interactions
   ##

bond_style	harmonic   			     #Sets the bond type as harmonic
angle_style	none	         		     #S2 had no angles
dihedral_style	none				     #S2 has no dihedrals (quadruplets)
improper_style	none				     #S2 has no improper quadruplets

bond_coeff	1 5000.00 1.000                      #Oxygen-Hydrogen bond parameters (1~ang)
		  				     #NOTE: harmonic moduli do not matter, since the rigid bonds are preserved by SHAKE

mass 1   15.999
mass 2   2.016

   ##                                                   
   # Specify the nature of intermolecular pair interactions 
   ##                                                    

pair_style	lj/cut/coul/long 10.0 10.0             #LJ with 10.0 cutoff, Coulomb with 10.0 cutoff
pair_modify     tail yes			     #Analytic Long-range Tail corrections, for the LJ interactions
kspace_style	pppm 1.0e-4                          #PPPM Ewald, relative error in forces
                                                     #kspace uses tinfoil/conducting boundary conditions by default

pair_coeff      1 1 0.15539421659476232 3.16555789   #Oxygen-Oxygen LJ(dispersion) parameters
pair_coeff	* 2 0.0000 0.0000		     #Hydrogen-Hydrogen LJ(disperson) parameters (none for S2 model)


################
# 3.  Simulation Settings
###############

 #ensures that atoms on the same molecule are excluded from pair interactions (necessary for United atom near neighbors)
neighbor 	2.0 bin
neigh_modify    every 1 delay 0 check yes
#communicate single cutoff 50.0 vel yes

reset_timestep 0

#SHAKE Parameters to preserve bondlengths
fix		1 all shake 0.0001 20 0 b 1 # a 1      #0.0001 = accuracy tolerance of SHAKE
		      	    	      	      	     #20 = max number of iterations in each SHAKE solution
		      	    	      	      	     #0 = print SHAKE statistics every "this many" timesteps (0 = never)
		      	    	      	      	     #b 1 = 1 bond type
		      	    	      	      	     #a 1 = 1 angle typ



velocity all create 298 4928459  dist gaussian
fix 2 all nvt temp 298.0 298.0 50.0 

timestep 2.0



#Output Style
variable        Nevery equal 20                      #Specify the distance (in timesteps) between samples for computing ensemble aver$
                                                     #  (Interval between samples in a block)
variable        Nrepeat equal 50                     #Specify the number of samples per output  of thermodynamic averages
                                                     #  (Samples per block output)
variable        Nfreq equal ${Nevery}*${Nrepeat}     #Specify the dump interval (in timesteps)
                                                     #  (Some people call these blocks)
variable        PotentialEnergy equal epair          #Call the intermolecular potential energy $PotentialEnergy
variable        Pressure equal press                 #Call the pressure $Pressure
variable        Temperature equal temp               #Call the instantaneous temperature $Temperature
variable        Density equal density                #Call the instantaneous density $Density (will not change for NVT)

fix             3 all ave/time ${Nevery} ${Nrepeat} ${Nfreq} v_Temperature v_PotentialEnergy v_Pressure file ave.out format %9g
thermo          1000                                 #Specify the interval between screen output of thermodynamic averages
thermo_style    custom step temp density epair press #Format for screen output of thermodynamics
                                                     #  (MD step, temperature, internal energy, pressure)


dump gigo all atom 250 dump.cords_xyz.dat
dump_modify gigo scale no
#dump vfgigo all custom 250 dump.velo.dat id vx vy vz fx fy fz

#Run it!
run             500000

write_restart FINALCONFIG
